solutions/NearestNeighbour/E-n51-k5.txt
[[[46], [46, 12], [46, 47, 12], [46, 47, 17, 12], [46, 47, 17, 37, 12], [46, 47, 17, 37, 5, 12], [46, 47, 17, 37, 5, 38, 12], [46, 47, 17, 37, 5, 49, 38, 12], [46, 47, 17, 37, 5, 49, 9, 38, 12], [46, 47, 17, 37, 5, 49, 9, 38, 11, 12], [46, 47, 17, 37, 5, 49, 9, 38, 11, 12]], [[27], [27, 32], [27, 32, 1], [27, 32, 1, 6], [27, 32, 1, 6, 48], [27, 32, 1, 6, 48, 23], [27, 32, 1, 6, 48, 7, 23], [27, 32, 1, 6, 48, 7, 23, 24], [27, 32, 1, 6, 48, 7, 23, 24, 14], [27, 32, 1, 6, 48, 7, 23, 24, 14, 25], [27, 32, 1, 6, 48, 7, 23, 24, 14, 25]], [[18], [18, 4], [18, 4, 13], [18, 4, 41, 13], [18, 4, 41, 19, 13], [18, 4, 41, 19, 40, 13], [18, 4, 41, 19, 42, 40, 13], [18, 4, 41, 19, 44, 42, 40, 13], [18, 4, 41, 19, 15, 44, 42, 40, 13], [18, 4, 41, 19, 15, 44, 42, 40, 13]], [[22], [22, 2], [22, 2, 20], [22, 2, 20, 3], [22, 2, 20, 3, 28], [22, 2, 20, 3, 28, 31], [22, 2, 20, 3, 28, 31, 8], [22, 2, 20, 3, 28, 31, 8, 26], [22, 2, 29, 20, 3, 28, 31, 8, 26], [22, 2, 16, 29, 20, 3, 28, 31, 8, 26], [22, 2, 16, 29, 20, 3, 28, 31, 8, 26]], [[50], [50, 34], [50, 34, 21], [50, 34, 21, 30], [50, 34, 21, 30, 10], [50, 34, 21, 30, 10, 39], [50, 34, 21, 30, 10, 39, 33], [50, 34, 21, 30, 10, 39, 45, 33], [50, 34, 21, 30, 10, 39, 45, 33, 35], [50, 34, 21, 30, 10, 39, 45, 33, 35, 36], [50, 34, 21, 30, 10, 39, 45, 33, 35, 36, 43], [50, 34, 21, 30, 10, 39, 45, 33, 35, 36, 43]]]