solutions/NearestNeighbour/E-n51-k5.sol
Route #1: 46 12 47 4 17 37 15 44 42 19 41
Route #2: 27 1 32 11 38 5 49 9 50 16
Route #3: 6 48 8 26 31 28 3 20 35 36 29
Route #4: 18 14 25 13 40 45 33 10
Route #5: 22 2 21 34 30 39 23 7 43
Route #6: 24
cost: 708
